Traveling Salesman Problem/TSP_generados/Aleatorio1620396216_17.tsp
NAME: Aleatorio1620396216_17.tsp
COMMENT: Randomly generated scenario
TYPE: TSP
DIMENSION: 17
EDGE_WEIGHT_TYPE: ATT
NODE_COORD_SECTION
1 14.94 12.39
2 48.27 36.66
3 29.49 17.84
4 48.48 33.2
5 14.2 17.45
6 6.1 27.35
7 33.18 0.54
8 8.08 27.71
9 45.8 7.36
10 25.0 47.94
11 16.08 17.91
12 23.76 14.65
13 7.18 46.83
14 23.37 4.19
15 16.12 44.31
16 10.76 40.15
17 10.18 38.29
