Traveling Salesman Problem/TSP_generados/Aleatorio1620396216_17.opt.tour
NAME: Aleatorio1620396216_17.opt.tour
COMMENT: Optimal solution for Aleatorio1620396216_17 (172.31005902886736)
TYPE: TOUR
DIMENSION: 17
TOUR_SECTION
1 12 3 14 7 9 4 2 10 15 13 16 17 8 6 5 11
-1
EOF
